SCIP Status        : solving was interrupted [time limit reached]
Total Time         :    3600.01
  solving          :    3600.00
  presolving       :       0.47 (included in solving)
  reading          :       0.01
  copying          :       1.05 (81 #copies) (minimal 0.00, maximal 0.04, average 0.01)
Original Problem   :
  Problem name     : bbbenchmark/pw09_100.1.cut
  Variables        : 101 (100 binary, 0 integer, 0 implicit integer, 1 continuous)
  Constraints      : 1 initial, 1 maximal
  Objective        : minimize, 1 non-zeros (abs.min = 1, abs.max = 1)
Presolved Problem  :
  Problem name     : t_bbbenchmark/pw09_100.1.cut
  Variables        : 1290 (100 binary, 0 integer, 1140 implicit integer, 50 continuous)
  Constraints      : 1288 initial, 4974 maximal
  Objective        : minimize, 1 non-zeros (abs.min = 1, abs.max = 1)
  Nonzeros         : 11585 constraint, 202 clique table
Presolvers         :   ExecTime  SetupTime  Calls  FixedVars   AggrVars   ChgTypes  ChgBounds   AddHoles    DelCons    AddCons   ChgSides   ChgCoefs
  boundshift       :       0.00       0.00      0          0          0          0          0          0          0          0          0          0
  convertinttobin  :       0.00       0.00      0          0          0          0          0          0          0          0          0          0
  domcol           :       0.00       0.00      1          0          0          0          0          0          0          0          0          0
  dualagg          :       0.00       0.00      0          0          0          0          0          0          0          0          0          0
  dualcomp         :       0.00       0.00      1          0          0          0          0          0          0          0          0          0
  dualinfer        :       0.00       0.00      0          0          0          0          0          0          0          0          0          0
  dualsparsify     :       0.00       0.00      1          0          0          0          0          0          0          0          0          0
  gateextraction   :       0.00       0.00      0          0          0          0          0          0          0          0          0          0
  implics          :       0.00       0.00      2          0          0          0          0          0          0          0          0          0
  inttobinary      :       0.00       0.00      0          0          0          0          0          0          0          0          0          0
  qpkktref         :       0.00       0.00      0          0          0          0          0          0          0          0          0          0
  redvub           :       0.00       0.00      0          0          0          0          0          0          0          0          0          0
  sparsify         :       0.00       0.00      1          0          0          0          0          0          0          0          0          0
  stuffing         :       0.00       0.00      0          0          0          0          0          0          0          0          0          0
  trivial          :       0.00       0.00      4          0          0          0          0          0          0          0          0          0
  tworowbnd        :       0.00       0.00      0          0          0          0          0          0          0          0          0          0
  dualfix          :       0.00       0.00      4          0          0          0          0          0          0          0          0          0
  genvbounds       :       0.00       0.00      0          0          0          0          0          0          0          0          0          0
  probing          :       0.24       0.00      1          0          0          0          0          0          0          0          0          0
  pseudoobj        :       0.00       0.00      1          0          0          0          1          0          0          0          0          0
  symmetry         :       0.00       0.00      0          0          0          0          0          0          0          0          0          0
  vbounds          :       0.00       0.00      1          0          0          0          0          0          0          0          0          0
  varbound         :       0.00       0.00      2          0          0          0          0          0          0          0          0          0
  and              :       0.01       0.00      2          0          0          0          0          0          0          0          0          0
  linear           :       0.00       0.00      2          0          0          0          0          0          0          0          0          0
  logicor          :       0.00       0.00      0          0          0          0          0          0          0          0          0          0
  bounddisjunction :       0.00       0.00      0          0          0          0          0          0          0          0          0          0
  nonlinear        :       0.20       0.01      5          0          0          0          1          0          0       1287          0          0
  benders          :       0.00       0.00      0          0          0          0          0          0          0          0          0          0
  components       :       0.00       0.00      1          0          0          0          0          0          0          0          0          0
  root node        :          -          -      -          0          -          -          8          -          -          -          -          -
Constraints        :     Number  MaxNumber  #Separate #Propagate    #EnfoLP    #EnfoRelax  #EnfoPS    #Check   #ResProp    Cutoffs    DomReds       Cuts    Applied      Conss   Children
  benderslp        :          0          0          0          0     532670          0          0      40581          0          0          0          0          0          0          0
  integral         :          0          0          0          0     532670          0          0      40581          0          0         23          0          0          2    1065290
  varbound         :         49         49         38    2258816          0          0          0       3590          0          0     276260          0          0          0          0
  and              :       1140       1140     580634    2293434          4          0          0       3590     167889          0     536586        964        717          0          0
  linear           :         99+       169         38    2293555          4          0          0       3588      28332        565   12333278          0          0          0          0
  logicor          :          0+      1841          0     153228          0          0          0          0          3        305          0          0          0          0          0
  bounddisjunction :          0+      1848          0     192915          0          0          0          0          4         96          0          0          0          0          0
  benders          :          0          0          0          0          4          0          0         18          0          0          0          0          0          0          0
  countsols        :          0          0          0          0          4          0          0         18          0          0          0          0          0          0          0
  components       :          0          0          0          0          0          0          0          0          0          0          0          0          0          0          0
Constraint Timings :  TotalTime  SetupTime   Separate  Propagate     EnfoLP     EnfoPS     EnfoRelax   Check    ResProp    SB-Prop
  benderslp        :       0.59       0.00       0.00       0.00       0.57       0.00       0.00       0.02       0.00       0.00
  integral         :      90.25       0.00       0.00       0.00      90.13       0.00       0.00       0.12       0.00       0.00
  varbound         :       4.14       0.00       0.00       4.05       0.00       0.00       0.00       0.08       0.00       0.01
  and              :     145.56       0.00     116.04      28.21       0.00       0.00       0.00       0.91       0.14       0.26
  linear           :      59.13       0.00       0.02      58.96       0.00       0.00       0.00       0.05       0.05       0.05
  logicor          :       5.06       0.00       0.00       5.06       0.00       0.00       0.00       0.00       0.00       0.00
  bounddisjunction :       7.49       0.00       0.00       7.48       0.00       0.00       0.00       0.00       0.00       0.01
  benders          :       0.00       0.00       0.00       0.00       0.00       0.00       0.00       0.00       0.00       0.00
  countsols        :       0.00       0.00       0.00       0.00       0.00       0.00       0.00       0.00       0.00       0.00
  components       :       0.51       0.00       0.00       0.51       0.00       0.00       0.00       0.00       0.00       0.00
Propagators        : #Propagate   #ResProp    Cutoffs    DomReds
  dualfix          :          2          0          0          0
  genvbounds       :          0          0          0          0
  nlobbt           :          0          0          0          0
  obbt             :          0          0          0          0
  probing          :          0          0          0          0
  pseudoobj        :    2349362          1          0         32
  redcost          :    1142453          0          0     242437
  rootredcost      :         11          0          0          0
  symmetry         :          0          0          0          0
  vbounds          :     376726          0          0          0
Propagator Timings :  TotalTime  SetupTime   Presolve  Propagate    ResProp    SB-Prop
  dualfix          :       0.00       0.00       0.00       0.00       0.00       0.00
  genvbounds       :       1.45       0.00       0.00       1.44       0.00       0.01
  nlobbt           :       0.00       0.00       0.00       0.00       0.00       0.00
  obbt             :       0.00       0.00       0.00       0.00       0.00       0.00
  probing          :       0.24       0.00       0.24       0.00       0.00       0.00
  pseudoobj        :       3.06       0.00       0.00       3.06       0.00       0.00
  redcost          :      35.96       0.00       0.00      35.95       0.00       0.01
  rootredcost      :       2.05       0.00       0.00       2.05       0.00       0.00
  symmetry         :       1.05       0.00       0.00       1.05       0.00       0.00
  vbounds          :       1.82       0.00       0.00       1.81       0.00       0.01
Conflict Analysis  :       Time      Calls    Success    DomReds  Conflicts   Literals    Reconvs ReconvLits   Dualrays   Nonzeros   LP Iters   (pool size: [10000,10000])
  propagation      :       0.00        401        261          -        396       76.2          0        0.0          -          -          -
  infeasible LP    :       0.70        709        709          -      23797      134.3          0        0.0       1150      144.3          0
  bound exceed. LP :      11.92       4265       4016          -      44804       97.6          0        0.0          0        0.0      56337
  strong branching :       0.00          0          0          -          0        0.0          0        0.0          -          -          0
  pseudo solution  :       0.00          0          0          -          0        0.0          0        0.0          -          -          -
  applied globally :       0.25          -          -          0      14780       93.8          -          -       1150          -          -
  applied locally  :          -          -          -          0          0        0.0          -          -          0          -          -
Separators         :   ExecTime  SetupTime      Calls  RootCalls    Cutoffs    DomReds  FoundCuts ViaPoolAdd  DirectAdd    Applied ViaPoolApp  DirectApp      Conss
  cut pool         :       4.88          -      55489         62          -          -      27731    1116964          -          -          -          -          -    (maximal pool size:       2453)
  aggregation      :     169.34       0.00       4742         38          0          0        293       4049          0         90         90          0          0
  > cmir           :          -          -          -          -          -          -          -       4049          0         90         90          0          -
  > flowcover      :          -          -          -          -          -          -          -          0          0          0          0          0          -
  > knapsackcover  :          -          -          -          -          -          -          -          0          0          0          0          0          -
  cgmip            :       0.00       0.00          0          0          0          0          0          0          0          0          0          0          0
  clique           :       0.01       0.00         38         38          0          0          0          0          0          0          0          0          0
  closecuts        :       0.00       0.00          0          0          0          0          0          0          0          0          0          0          0
  convexproj       :       0.00       0.00          0          0          0          0          0          0          0          0          0          0          0
  disjunctive      :       0.00       0.00          0          0          0          0          0          0          0          0          0          0          0
  eccuts           :       0.00       0.00          0          0          0          0          0          0          0          0          0          0          0
  gauge            :       0.00       0.00          0          0          0          0          0          0          0          0          0          0          0
  gomory           :       0.00       0.00          0          0          0          0          0          0          0          0          0          0          0
  > gomorymi       :          -          -          -          -          -          -          -          0          0          0          0          0          -
  > strongcg       :          -          -          -          -          -          -          -          0          0          0          0          0          -
  impliedbounds    :       0.37       0.00       4742         38          0          0          0          0          0          0          0          0          0
  interlattice     :       0.00       0.00          0          0          0          0          0          0          0          0          0          0          0
  interminor       :       0.00       0.00          0          0          0          0          0          0          0          0          0          0          0
  intersub         :       0.50       0.00         17         17          0          0         16          0         16         16          0         16          0
  intobj           :       0.00       0.00          0          0          0          0          0          0          0          0          0          0          0
  mcf              :       0.00       0.00          1          1          0          0          0          0          0          0          0          0          0
  minor            :       0.02       0.00          0          0          0          0          0          0          0          0          0          0          0
  mixing           :       0.01       0.00       4742         38          0          0          0          0          0          0          0          0          0
  oddcycle         :       0.00       0.00          0          0          0          0          0          0          0          0          0          0          0
  rapidlearning    :       0.05       0.00          0          0          0          0          0          0          0          0          0          0          0
  rlt              :       0.00       0.00         10         10          0          0          0          0          0          0          0          0          0
  zerohalf         :      23.51       0.00       4214         20          0          0      27438    1112915          0     222019     222019          0          0
Cutselectors       :   ExecTime  SetupTime      Calls  RootCalls   Selected     Forced   Filtered  RootSelec   RootForc   RootFilt 
  hybrid           :       0.92       0.00      30445         37     222842          0     895102        139          0          4
Pricers            :   ExecTime  SetupTime      Calls       Vars
  problem variables:       0.00          -          0          0
Branching Rules    :   ExecTime  SetupTime   BranchLP  BranchExt   BranchPS    Cutoffs    DomReds       Cuts      Conss   Children
  allfullstrong    :       0.00       0.00          0          0          0          0          0          0          0          0
  cloud            :       0.00       0.00          0          0          0          0          0          0          0          0
  distribution     :       0.00       0.00          0          0          0          0          0          0          0          0
  fullstrong       :       0.00       0.00          0          0          0          0          0          0          0          0
  inference        :       0.00       0.00          0          0          0          0          0          0          0          0
  leastinf         :       0.00       0.00          0          0          0          0          0          0          0          0
  lookahead        :       0.00       0.00          0          0          0          0          0          0          0          0
  mostinf          :       0.00       0.00          0          0          0          0          0          0          0          0
  multaggr         :       0.00       0.00          0          0          0          0          0          0          0          0
  nodereopt        :       0.00       0.00          0          0          0          0          0          0          0          0
  pscost           :       0.00       0.00          0          0          0          0          0          0          0          0
  random           :       0.00       0.00          0          0          0          0          0          0          0          0
  relpscost        :      88.57       0.00     532666          0          0          0         23          0          2    1065290
  vanillafullstrong:       0.00       0.00          0          0          0          0          0          0          0          0
Primal Heuristics  :   ExecTime  SetupTime      Calls      Found       Best
  LP solutions     :       0.00          -          -          4          4
  relax solutions  :       0.00          -          -          0          0
  pseudo solutions :       0.00          -          -          0          0
  strong branching :       0.01          -          -          0          0
  actconsdiving    :       0.00       0.00          0          0          0
  adaptivediving   :       8.72       0.00        114          1          1
  alns             :       1.65       0.00         26          0          0
  bound            :       0.00       0.00          0          0          0
  clique           :       0.02       0.00          1          0          0
  coefdiving       :       0.00       0.00          0          0          0
  completesol      :       0.00       0.00          0          0          0
  conflictdiving   :     116.85       0.00        932          0          0
  crossover        :       8.18       0.00          7          1          1
  dins             :       0.00       0.00          0          0          0
  distributiondivin:      65.25       0.00        481          0          0
  dps              :       0.00       0.00          0          0          0
  dualval          :       0.00       0.00          0          0          0
  farkasdiving     :       0.03       0.00          0          0          0
  feaspump         :       0.12       0.00          1          0          0
  fixandinfer      :       0.00       0.00          0          0          0
  fracdiving       :      39.19       0.00        422          0          0
  gins             :       0.51       0.00          0          0          0
  guideddiving     :      37.93       0.00        389          0          0
  indicator        :       0.52       0.00          0          0          0
  indicatordiving  :       0.00       0.00          0          0          0
  intdiving        :       0.00       0.00          0          0          0
  intshifting      :       0.65       0.00        141          0          0
  linesearchdiving :      33.78       0.00        532          0          0
  localbranching   :       0.00       0.00          0          0          0
  locks            :       0.01       0.00          1          0          0
  lpface           :       0.47       0.00          0          0          0
  mpec             :      69.35       0.00         11          0          0
  multistart       :       0.00       0.00          0          0          0
  mutation         :       0.00       0.00          0          0          0
  nlpdiving        :      17.90       0.00          3          1          0
  objpscostdiving  :      25.53       0.00        102          3          1
  octane           :       0.00       0.00          0          0          0
  ofins            :       0.43       0.00          0          0          0
  oneopt           :       0.41       0.00         13          0          0
  padm             :       0.00       0.00          0          0          0
  proximity        :       0.00       0.00          0          0          0
  pscostdiving     :      41.60       0.00        322          3          3
  randrounding     :       2.40       0.00      40576          0          0
  rens             :       0.00       0.00          0          0          0
  reoptsols        :       0.00       0.00          0          0          0
  repair           :       0.00       0.00          0          0          0
  rins             :       2.67       0.00         48          0          0
  rootsoldiving    :      13.85       0.00        194          2          0
  rounding         :       2.33       0.00      10480          0          0
  shiftandpropagate:       0.00       0.00          0          0          0
  shifting         :      28.34       0.00       9444          1          1
  simplerounding   :       0.44       0.00          0          0          0
  subnlp           :     408.37       0.00          0          0          0
  trivial          :       0.02       0.00          2          2          2
  trivialnegation  :       0.00       0.00          0          0          0
  trustregion      :       0.00       0.00          0          0          0
  trysol           :       0.67       0.00          0          0          0
  twoopt           :       0.00       0.00          0          0          0
  undercover       :       4.74       0.00          1          1          1
  vbounds          :       0.00       0.00          0          0          0
  veclendiving     :      35.57       0.00        758          0          0
  zeroobj          :       0.00       0.00          0          0          0
  zirounding       :       0.74       0.00       1000          0          0
  other solutions  :          -          -          -          0          -
Diving (single)    :      Calls      Nodes   LP Iters Backtracks  Conflicts   MinDepth   MaxDepth   AvgDepth  RoundSols  NLeafSols  MinSolDpt  MaxSolDpt  AvgSolDpt
  actconsdiving    :          0          -          -          -          -          -          -          -          -          -          -          -          -
  coefdiving       :          0          -          -          -          -          -          -          -          -          -          -          -          -
  conflictdiving   :        932      41591    1163550        864      15598         62         88       77.8          0          -          -          -          -
  distributiondivin:        481      20749     392721        580       8113         61         92       75.4          0          -          -          -          -
  farkasdiving     :          0          -          -          -          -          -          -          -          -          -          -          -          -
  fracdiving       :        422      52342     394051        149       1223         73        484      154.9          0          -          -          -          -
  guideddiving     :        389      46872     395061         26        655         70        406      150.0          0          -          -          -          -
  indicatordiving  :          0          -          -          -          -          -          -          -          -          -          -          -          -
  linesearchdiving :        532      29672     392068         80      11815         71        106       87.8          0          -          -          -          -
  pscostdiving     :        322      15154     432492        310       5158         71         94       80.8          0          3         80         89       85.0
  veclendiving     :        758      36434     389736        487      25460         67         95       80.3          0          -          -          -          -
Diving (adaptive)  :      Calls      Nodes   LP Iters Backtracks  Conflicts   MinDepth   MaxDepth   AvgDepth  RoundSols  NLeafSols  MinSolDpt  MaxSolDpt  AvgSolDpt
  actconsdiving    :         13        636       8584         13        153         72         84       77.2          0          -          -          -          -
  coefdiving       :         14        793       7605         12        445         71         92       80.5          0          -          -          -          -
  conflictdiving   :          0          -          -          -          -          -          -          -          -          -          -          -          -
  distributiondivin:          0          -          -          -          -          -          -          -          -          -          -          -          -
  farkasdiving     :          0          -          -          -          -          -          -          -          -          -          -          -          -
  fracdiving       :          2        302       2389          0          0        163        170      166.5          0          -          -          -          -
  guideddiving     :          6        636       5719          1          4         80        173      135.7          0          -          -          -          -
  indicatordiving  :          0          -          -          -          -          -          -          -          -          -          -          -          -
  linesearchdiving :         58       3136      41946          4       1147         70         99       87.0          0          -          -          -          -
  pscostdiving     :         14        467      11118          7         99         69         86       77.4          0          1         80         80       80.0
  veclendiving     :          7        408       4643          6        257         69         86       78.6          0          -          -          -          -
Neighborhoods      :      Calls  SetupTime  SolveTime SolveNodes       Sols       Best       Exp3  EpsGreedy        UCB TgtFixRate  Opt  Inf Node Stal  Sol  Usr Othr Actv
  rens             :          2       0.03       0.06         52          0          0    0.00000   -1.00000    0.47435      0.850    0    1    0    1    0    0    0    1
  rins             :          2       0.05       0.15        143          0          0    0.00000   -1.00000    0.43735      0.850    0    1    0    1    0    0    0    1
  mutation         :          2       0.01       0.10         88          0          0    0.00000   -1.00000    0.46580      0.850    0    1    0    1    0    0    0    1
  localbranching   :          4       0.07       0.09        135          0          0    0.00000   -1.00000    0.47265      0.722    0    2    0    2    0    0    0    1
  crossover        :          4       0.07       0.21         77          0          0    0.00000   -1.00000    0.45460      0.522    0    3    0    1    0    0    0    1
  proximity        :          5       0.12       0.13        117          0          0    0.00000   -1.00000    0.47621      0.590    0    4    0    1    0    0    0    1
  zeroobjective    :          6       0.21       0.17        174          0          0    0.00000   -1.00000    0.45202      0.637    0    4    0    2    0    0    0    1
  dins             :          1       0.00       0.00          0          0          0    0.00000   -1.00000    0.07262      0.900    0    0    0    0    0    0    1    1
  trustregion      :          0       0.00       0.00          0          0          0    0.00000   -1.00000    1.00000      0.900    0    0    0    0    0    0    0    0
Expressions        :   #IntEval  IntEvalTi   #RevProp  RevPropTi    DomReds    Cutoffs  #Estimate  EstimTime  Branching  #Simplify SimplifyTi Simplified
  pow              :          0       0.00          0       0.00          0          0          0       0.00          0          0       0.00          0
  prod             :      17820       0.00          0       0.00          0          0          0       0.00          0      10050       0.02          0
  sum              :          8       0.00          2       0.00          0          0          0       0.00          0          3       0.05          2
  var              :       4679       0.00          0       0.00          0          0          0       0.00          0      21592       0.01          0
  varidx           :          0       0.00          0       0.00          0          0          0       0.00          0          0       0.00          0
LP                 :       Time      Calls Iterations  Iter/call   Iter/sec  Time-0-It Calls-0-It    ItLimit
  primal LP        :      96.16      23158          0       0.00       0.00      96.06      23158
  dual LP          :    1412.32     856982    7666071       9.46    5428.00      14.18      46697
  lex dual LP      :       0.00          0          0       0.00          -
  barrier LP       :       0.00          0          0       0.00          -       0.00          0
  resolve instable :       0.00          0          0       0.00          -
  diving/probing LP:     330.63      24464    3938847     161.01   11913.16
  strong branching :      12.44       1269      89481      70.51    7193.01          -          -       1343
    (at root node) :          -         19       3487     183.53          -
  conflict analysis:       6.02       6255      56337       9.01    9358.31
NLP relaxation     :
  solve time       :      17.51 (27 calls)
  convexity        :  nonconvex (148 linear rows, 0 convex ineq., 0 nonconvex ineq., 1140 nonlinear eq. or two-sided ineq.)
NLP Solvers        :  #Problems  ProblemTi    #Solves  SolveTime      #Iter  Time/Iter      #Okay #TimeLimit #IterLimit #LObjLimit #Interrupt  #NumError #EvalError  #OutOfMem #LicenseEr #OtherTerm   #GlobOpt    #LocOpt  #Feasible #LocInfeas #GlobInfea #Unbounded   #Unknown
  ipopt            :         12      20.01         67      86.76       1798       0.05         63          0          4          0          0          0          0          0          0          0          0         44          2         18          0          0          3
B&B Tree           :
  number of runs   :          1
  nodes            :     779847 (532645 internal, 247202 leaves)
  feasible leaves  :          4
  infeas. leaves   :          9
  objective leaves :     247188
  nodes (total)    :     779847 (532645 internal, 247202 leaves)
  nodes left       :     285425
  max depth        :         85
  max depth (total):         85
  backtracks       :     146138 (18.7%)
  early backtracks :          0 (0.0%)
  nodes exc. ref.  :          0 (0.0%)
  delayed cutoffs  :          0
  repropagations   :          7 (33 domain reductions, 0 cutoffs)
  avg switch length:       7.05
  switching time   :     241.65
Estim. Tree Size   :    1559732
Estimation Tree    : 1065291 nodes (779866 visited, 532645 internal, 247221 leaves, 285425 open), weight: 0.0000 completed 0.0222
Estimations        :      estim      value      trend resolution     smooth
  wbe              :         in          -          -          -          -
  tree-profile     :         -1          -          -          -          -
  gap              :   43335520    0.60572    0.00000        256   42599352
  tree-weight      :    1559732    0.00000    0.00000        256    1558028
  leaf-frequency   :    1559732    0.31700   -0.00000        256    1581382
  ssg              :   87385347    0.96488   -0.00001        256   87265191
  open-nodes       :    1559732 285425.00000  168.69057        256    1558028
Root Node          :
  First LP value   : -5.44713804713805e+00
  First LP Iters   :       2193 (12183.33 Iter/sec)
  First LP Time    :       0.18
  Final Dual Bound : -5.35293820609357e+00
  Final Root Iters :       3155
  Root LP Estimate : -2.74389276124694e+00
Solution           :
  Solutions found  :         19 (14 improvements)
  First Solution   : +1.00000000000000e+05   (in run 1, after 0 nodes, 0.03 seconds, depth 0, found by <trivial>)
  Gap First Sol.   :   infinite
  Gap Last Sol.    :      75.64 %
  Primal Bound     : -2.92592592592593e+00   (in run 1, after 15686 nodes, 302.57 seconds, depth 80, found by <relaxation>)
  Dual Bound       : -4.83046767209410e+00
  Gap              :      65.09 %
Integrals          :      Total       Avg%
  primal-dual      :  147088.44      40.86
  primal-ref       :          -          - (not evaluated)
  dual-ref         :          -          - (not evaluated)
